(set-option :produce-proofs true)
(declare-const x000 Int)
(declare-const x001 Int)
(declare-const x002 Int)
(declare-const x003 Int)
(declare-const x004 Int)
(declare-const x005 Int)
(declare-const x006 Int)
(declare-const x007 Int)
(declare-const x008 Int)
(declare-const x009 Int)
(declare-const x010 Int)
(declare-const x011 Int)
(declare-const x012 Int)
(declare-const x013 Int)
(declare-const x014 Int)
(declare-const x015 Int)
(declare-const x016 Int)
(declare-const x017 Int)
(declare-const x018 Int)
(declare-const x019 Int)
(declare-const x020 Int)
(declare-const x021 Int)
(assert (>= 1 x000))
(assert (<= 0 x000))
(assert (>= 1 x001))
(assert (<= 0 x001))
(assert (>= 1 x002))
(assert (<= 0 x002))
(assert (>= 2 (+ x002 x001 x000)))
(assert (>= 1 x003))
(assert (<= 0 x003))
(assert (>= 2 (+ x003 x002 x001)))
(assert (>= 1 x004))
(assert (<= 0 x004))
(assert (>= 2 (+ x004 x003 x002)))
(assert (>= 2 (+ x004 x002 x000)))
(assert (<= 1 (+ x004 x003 x002 x001 x000)))
(assert (>= 1 x005))
(assert (<= 0 x005))
(assert (>= 2 (+ x005 x004 x003)))
(assert (>= 2 (+ x005 x003 x001)))
(assert (<= 1 (+ x005 x004 x003 x002 x001)))
(assert (>= 1 x006))
(assert (<= 0 x006))
(assert (>= 2 (+ x006 x005 x004)))
(assert (>= 2 (+ x006 x004 x002)))
(assert (>= 2 (+ x006 x003 x000)))
(assert (<= 1 (+ x006 x005 x004 x003 x002)))
(assert (>= 1 x007))
(assert (<= 0 x007))
(assert (>= 2 (+ x007 x006 x005)))
(assert (>= 2 (+ x007 x005 x003)))
(assert (>= 2 (+ x007 x004 x001)))
(assert (<= 1 (+ x007 x006 x005 x004 x003)))
(assert (>= 1 x008))
(assert (<= 0 x008))
(assert (>= 2 (+ x008 x007 x006)))
(assert (>= 2 (+ x008 x006 x004)))
(assert (>= 2 (+ x008 x005 x002)))
(assert (>= 2 (+ x008 x004 x000)))
(assert (<= 1 (+ x008 x007 x006 x005 x004)))
(assert (<= 1 (+ x008 x006 x004 x002 x000)))
(assert (>= 1 x009))
(assert (<= 0 x009))
(assert (>= 2 (+ x009 x008 x007)))
(assert (>= 2 (+ x009 x007 x005)))
(assert (>= 2 (+ x009 x006 x003)))
(assert (>= 2 (+ x009 x005 x001)))
(assert (<= 1 (+ x009 x008 x007 x006 x005)))
(assert (<= 1 (+ x009 x007 x005 x003 x001)))
(assert (>= 1 x010))
(assert (<= 0 x010))
(assert (>= 2 (+ x010 x009 x008)))
(assert (>= 2 (+ x010 x008 x006)))
(assert (>= 2 (+ x010 x007 x004)))
(assert (>= 2 (+ x010 x006 x002)))
(assert (>= 2 (+ x010 x005 x000)))
(assert (<= 1 (+ x010 x009 x008 x007 x006)))
(assert (<= 1 (+ x010 x008 x006 x004 x002)))
(assert (>= 1 x011))
(assert (<= 0 x011))
(assert (>= 2 (+ x011 x010 x009)))
(assert (>= 2 (+ x011 x009 x007)))
(assert (>= 2 (+ x011 x008 x005)))
(assert (>= 2 (+ x011 x007 x003)))
(assert (>= 2 (+ x011 x006 x001)))
(assert (<= 1 (+ x011 x010 x009 x008 x007)))
(assert (<= 1 (+ x011 x009 x007 x005 x003)))
(assert (>= 1 x012))
(assert (<= 0 x012))
(assert (>= 2 (+ x012 x011 x010)))
(assert (>= 2 (+ x012 x010 x008)))
(assert (>= 2 (+ x012 x009 x006)))
(assert (>= 2 (+ x012 x008 x004)))
(assert (>= 2 (+ x012 x007 x002)))
(assert (>= 2 (+ x012 x006 x000)))
(assert (<= 1 (+ x012 x011 x010 x009 x008)))
(assert (<= 1 (+ x012 x010 x008 x006 x004)))
(assert (<= 1 (+ x012 x009 x006 x003 x000)))
(assert (>= 1 x013))
(assert (<= 0 x013))
(assert (>= 2 (+ x013 x012 x011)))
(assert (>= 2 (+ x013 x011 x009)))
(assert (>= 2 (+ x013 x010 x007)))
(assert (>= 2 (+ x013 x009 x005)))
(assert (>= 2 (+ x013 x008 x003)))
(assert (>= 2 (+ x013 x007 x001)))
(assert (<= 1 (+ x013 x012 x011 x010 x009)))
(assert (<= 1 (+ x013 x011 x009 x007 x005)))
(assert (<= 1 (+ x013 x010 x007 x004 x001)))
(assert (>= 1 x014))
(assert (<= 0 x014))
(assert (>= 2 (+ x014 x013 x012)))
(assert (>= 2 (+ x014 x012 x010)))
(assert (>= 2 (+ x014 x011 x008)))
(assert (>= 2 (+ x014 x010 x006)))
(assert (>= 2 (+ x014 x009 x004)))
(assert (>= 2 (+ x014 x008 x002)))
(assert (>= 2 (+ x014 x007 x000)))
(assert (<= 1 (+ x014 x013 x012 x011 x010)))
(assert (<= 1 (+ x014 x012 x010 x008 x006)))
(assert (<= 1 (+ x014 x011 x008 x005 x002)))
(assert (>= 1 x015))
(assert (<= 0 x015))
(assert (>= 2 (+ x015 x014 x013)))
(assert (>= 2 (+ x015 x013 x011)))
(assert (>= 2 (+ x015 x012 x009)))
(assert (>= 2 (+ x015 x011 x007)))
(assert (>= 2 (+ x015 x010 x005)))
(assert (>= 2 (+ x015 x009 x003)))
(assert (>= 2 (+ x015 x008 x001)))
(assert (<= 1 (+ x015 x014 x013 x012 x011)))
(assert (<= 1 (+ x015 x013 x011 x009 x007)))
(assert (<= 1 (+ x015 x012 x009 x006 x003)))
(assert (>= 1 x016))
(assert (<= 0 x016))
(assert (>= 2 (+ x016 x015 x014)))
(assert (>= 2 (+ x016 x014 x012)))
(assert (>= 2 (+ x016 x013 x010)))
(assert (>= 2 (+ x016 x012 x008)))
(assert (>= 2 (+ x016 x011 x006)))
(assert (>= 2 (+ x016 x010 x004)))
(assert (>= 2 (+ x016 x009 x002)))
(assert (>= 2 (+ x016 x008 x000)))
(assert (<= 1 (+ x016 x015 x014 x013 x012)))
(assert (<= 1 (+ x016 x014 x012 x010 x008)))
(assert (<= 1 (+ x016 x013 x010 x007 x004)))
(assert (<= 1 (+ x016 x012 x008 x004 x000)))
(assert (>= 1 x017))
(assert (<= 0 x017))
(assert (>= 2 (+ x017 x016 x015)))
(assert (>= 2 (+ x017 x015 x013)))
(assert (>= 2 (+ x017 x014 x011)))
(assert (>= 2 (+ x017 x013 x009)))
(assert (>= 2 (+ x017 x012 x007)))
(assert (>= 2 (+ x017 x011 x005)))
(assert (>= 2 (+ x017 x010 x003)))
(assert (>= 2 (+ x017 x009 x001)))
(assert (<= 1 (+ x017 x016 x015 x014 x013)))
(assert (<= 1 (+ x017 x015 x013 x011 x009)))
(assert (<= 1 (+ x017 x014 x011 x008 x005)))
(assert (<= 1 (+ x017 x013 x009 x005 x001)))
(assert (>= 1 x018))
(assert (<= 0 x018))
(assert (>= 2 (+ x018 x017 x016)))
(assert (>= 2 (+ x018 x016 x014)))
(assert (>= 2 (+ x018 x015 x012)))
(assert (>= 2 (+ x018 x014 x010)))
(assert (>= 2 (+ x018 x013 x008)))
(assert (>= 2 (+ x018 x012 x006)))
(assert (>= 2 (+ x018 x011 x004)))
(assert (>= 2 (+ x018 x010 x002)))
(assert (>= 2 (+ x018 x009 x000)))
(assert (<= 1 (+ x018 x017 x016 x015 x014)))
(assert (<= 1 (+ x018 x016 x014 x012 x010)))
(assert (<= 1 (+ x018 x015 x012 x009 x006)))
(assert (<= 1 (+ x018 x014 x010 x006 x002)))
(assert (>= 1 x019))
(assert (<= 0 x019))
(assert (>= 2 (+ x019 x018 x017)))
(assert (>= 2 (+ x019 x017 x015)))
(assert (>= 2 (+ x019 x016 x013)))
(assert (>= 2 (+ x019 x015 x011)))
(assert (>= 2 (+ x019 x014 x009)))
(assert (>= 2 (+ x019 x013 x007)))
(assert (>= 2 (+ x019 x012 x005)))
(assert (>= 2 (+ x019 x011 x003)))
(assert (>= 2 (+ x019 x010 x001)))
(assert (<= 1 (+ x019 x018 x017 x016 x015)))
(assert (<= 1 (+ x019 x017 x015 x013 x011)))
(assert (<= 1 (+ x019 x016 x013 x010 x007)))
(assert (<= 1 (+ x019 x015 x011 x007 x003)))
(assert (>= 1 x020))
(assert (<= 0 x020))
(assert (>= 2 (+ x020 x019 x018)))
(assert (>= 2 (+ x020 x018 x016)))
(assert (>= 2 (+ x020 x017 x014)))
(assert (>= 2 (+ x020 x016 x012)))
(assert (>= 2 (+ x020 x015 x010)))
(assert (>= 2 (+ x020 x014 x008)))
(assert (>= 2 (+ x020 x013 x006)))
(assert (>= 2 (+ x020 x012 x004)))
(assert (>= 2 (+ x020 x011 x002)))
(assert (>= 2 (+ x020 x010 x000)))
(assert (<= 1 (+ x020 x019 x018 x017 x016)))
(assert (<= 1 (+ x020 x018 x016 x014 x012)))
(assert (<= 1 (+ x020 x017 x014 x011 x008)))
(assert (<= 1 (+ x020 x016 x012 x008 x004)))
(assert (<= 1 (+ x020 x015 x010 x005 x000)))
(assert (>= 1 x021))
(assert (<= 0 x021))
(assert (>= 2 (+ x021 x020 x019)))
(assert (>= 2 (+ x021 x019 x017)))
(assert (>= 2 (+ x021 x018 x015)))
(assert (>= 2 (+ x021 x017 x013)))
(assert (>= 2 (+ x021 x016 x011)))
(assert (>= 2 (+ x021 x015 x009)))
(assert (>= 2 (+ x021 x014 x007)))
(assert (>= 2 (+ x021 x013 x005)))
(assert (>= 2 (+ x021 x012 x003)))
(assert (>= 2 (+ x021 x011 x001)))
(assert (<= 1 (+ x021 x020 x019 x018 x017)))
(assert (<= 1 (+ x021 x019 x017 x015 x013)))
(assert (<= 1 (+ x021 x018 x015 x012 x009)))
(assert (<= 1 (+ x021 x017 x013 x009 x005)))
(assert (<= 1 (+ x021 x016 x011 x006 x001)))
(check-sat)
(get-proof)
